p cnf 0 0
c help to minisat to remove posibilities
1 2 0
3 4 0
5 6 0
c proper colo
1 7 0
3 8 0
5 9 0
-7 3 0
-7 5 0
-7 4 6 0
-7 -4 -6 0
7 -3 -5 4 -6 0
7 -3 -5 -4 6 0
-8 1 0
-8 5 0
-8 2 6 0
-8 -2 -6 0
8 -1 -5 2 -6 0
8 -1 -5 -2 6 0
-9 1 0
-9 3 0
-9 2 4 0
-9 -2 -4 0
9 -1 -3 2 -4 0
9 -1 -3 -2 4 0
c Graph as few edges
-10 13 0
-13 10 3 0
-11 14 0
-14 11 3 0
-10 -3 14 0
-14 11 10 0
-12 15 0
-15 12 3 0
-11 -3 15 0
-15 12 11 0
-13 16 0
-16 13 5 0
-14 17 0
-17 14 5 0
-13 -5 17 0
-17 14 13 0
-15 18 0
-18 15 5 0
-14 -5 18 0
-18 15 14 0
10 0
-12 0
-15 0
-18 0
17 0
c Variable for even degree
-18 -1 0
18 1 0
-19 -1 -18 0
-19 1 18 0
19 1 -18 0
19 -1 18 0
-20 -3 -19 0
-20 3 19 0
20 3 -19 0
20 -3 19 0
-21 1 0
21 -1 0
-22 -5 -21 0
-22 5 21 0
22 5 -21 0
22 -5 21 0
-23 3 0
23 -3 0
-24 -5 -23 0
-24 5 23 0
24 5 -23 0
24 -5 23 0
-20 -22 -24 0
